11 11
7
3 3 3 8
3 4 3 0
3 5 0 6
3 6 0 0
5 3 6 8
5 4 6 0
8 4 3 4
% time elapsed: 0.09 s
% time elapsed: 0.09 s
%%%mzn-stat: initTime=0.000237
%%%mzn-stat: solveTime=0.001333
%%%mzn-stat: solutions=13
%%%mzn-stat: variables=15
%%%mzn-stat: propagators=12
%%%mzn-stat: propagations=2728
%%%mzn-stat: nodes=435
%%%mzn-stat: failures=196
%%%mzn-stat: restarts=0
%%%mzn-stat: peakDepth=18
%%%mzn-stat-end
